137431
0,42,78,90,59,95,77,93,69,2,100,104,37,103,10,40,66,94,53,70,35,84,47,72,38,36,48,17,6,52,83,32,1,61,21,20,16,89,63,15,19,55,39,5,76,45,85,24,44,71,81,99,50,62,31,74,34,102,3,14,60,46,13,33,82,56,79,22,8,25,49,67,98,18,41,80,68,87,12,97,30,64,51,4,29,28,54,96,105,7,91,11,92,88,73,101,23,75,57,27,26,9,58,65,43,86,0